experiment/data/hgs-res/Vrp-Set-A-n44/Vrp-Set-A-n44-hgs/0.hgs1.vrp
NAME : 0
COMMENT : CVRP Instance
TYPE : CVRP
DIMENSION : 44
EDGE_WEIGHT_TYPE : EUC_2D
CAPACITY : 100
NODE_COORD_SECTION
1	14.0	68.0
2	73.0	2.0
3	13.0	47.0
4	37.0	44.0
5	34.0	63.0
6	58.0	98.0
7	33.0	42.0
8	18.0	98.0
9	24.0	79.0
10	17.0	28.0
11	72.0	67.0
12	78.0	63.0
13	42.0	48.0
14	1.0	2.0
15	2.0	28.0
16	32.0	82.0
17	97.0	38.0
18	39.0	53.0
19	87.0	1.0
20	42.0	77.0
21	83.0	27.0
22	79.0	92.0
23	22.0	39.0
24	58.0	32.0
25	53.0	84.0
26	38.0	37.0
27	63.0	59.0
28	42.0	88.0
29	32.0	88.0
30	38.0	23.0
31	63.0	32.0
32	22.0	73.0
33	88.0	94.0
34	58.0	78.0
35	43.0	62.0
36	73.0	1.0
37	17.0	32.0
38	87.0	79.0
39	12.0	24.0
40	48.0	53.0
41	48.0	23.0
42	7.0	37.0
43	98.0	77.0
44	34.0	12.0
DEMAND_SECTION
1	0
2	8
3	24
4	9
5	19
6	9
7	18
8	9
9	14
10	3
11	14
12	8
13	8
14	13
15	18
16	4
17	24
18	14
19	8
20	18
21	13
22	2
23	9
24	18
25	3
26	24
27	8
28	24
29	14
30	13
31	24
32	23
33	9
34	13
35	14
36	14
37	18
38	24
39	4
40	8
41	13
42	4
43	14
44	18
DEPOT_SECTION
1
-1
EOF
