experiment/data/hgs-res/Vrp-Set-A-n44/Vrp-Set-A-n44-hgs/0.hgs1.tour
Route #1: 22 36 9 38 13 14 41 2
Route #2: 17 30 23 40 43 29
Route #3: 4 34 39 12 3 25 6
Route #4: 26 10 11 16 20 18 35 1
Route #5: 33 37 42 32 21 5 24 19
Route #6: 31 8 15 27 28 7
Cost 938.181
